7
[-1, 40, 80, 0, 303, 130, 4, 
40, -1, 0, 0, 19, 53, 0, 
80, 0, -1, 71, 53, 55, 271, 
0, 0, 71, -1, 26, 0, 158, 
303, 19, 53, 26, -1, 78, 0, 
130, 53, 55, 0, 78, -1, 202, 
4, 0, 271, 158, 0, 202, -1]